sat
(:added-eqs                   24
 :arith-bound-propagations-lp 1
 :arith-branch                277
 :arith-conflicts             70
 :arith-cube-calls            68
 :arith-cube-success          1
 :arith-dio-calls             277
 :arith-fixed-eqs             17
 :arith-gcd-calls             146
 :arith-hnf-calls             32
 :arith-lower                 204
 :arith-make-feasible         502
 :arith-max-columns           367
 :arith-max-rows              205
 :arith-offset-eqs            11
 :arith-patches               278
 :arith-upper                 472
 :binary-propagations         8
 :conflicts                   70
 :decisions                   547
 :del-clause                  45
 :final-checks                278
 :max-memory                  76.05
 :memory                      23.32
 :minimized-lits              3
 :mk-bool-var                 785
 :mk-clause                   120
 :mk-clause-binary            19
 :num-allocs                  40499037543.00
 :num-checks                  3
 :propagations                111
 :rlimit-count                31192308
 :sat-backjumps               64229
 :sat-backtracks              75
 :sat-conflicts               64304
 :sat-decisions               192180
 :sat-del-clause              43015
 :sat-elim-bool-vars-res      7990
 :sat-elim-clauses            2306
 :sat-elim-literals           1487
 :sat-minimized-lits          1134994
 :sat-mk-clause-2ary          95427
 :sat-mk-clause-3ary          27315
 :sat-mk-clause-nary          321114
 :sat-mk-var                  94422
 :sat-probing-assigned        536
 :sat-propagations-2ary       15756998
 :sat-propagations-nary       13264942
 :sat-restarts                11180
 :sat-scc-elim-binary         59
 :sat-scc-elim-vars           2
 :sat-subs-resolution         298
 :sat-subs-resolution-dyn     18618
 :sat-subsumed                665
 :sat-units                   550
 :time                        88.03
 :total-time                  87.91)
